NAME : mEgtspf.pid3321.gtsp.160061447.tour
COMMENT : Length = 160061447
COMMENT : Found by LKH [Keld Helsgaun] Wed Mar 19 14:54:05 2025
TYPE : TOUR
DIMENSION : 90
TOUR_SECTION
1
7
79
80
81
82
87
88
89
90
2
38
35
36
37
14
11
12
13
3
4
33
34
31
32
69
70
67
68
8
28
29
30
27
48
49
50
47
10
64
65
66
63
46
43
44
45
17
18
15
16
83
84
85
86
39
40
41
42
55
56
57
58
21
22
19
20
26
23
24
25
74
71
72
73
52
53
54
51
77
78
75
76
6
60
61
62
59
9
5
-1
EOF
